58763.0
1771
0 1 2 5 7 8 11 12 15 18 19 20 21 22 24 25 26 27 28 29 30 31 33 34 36 37 38 40 41 42 43 45 46 47 48 49 50 53 54 55 56 57 58 59 61 62 64 68 69 70 72 74 75 77 78 79 80 82 83 84 85 86 87 88 89 91 93 94 95 96 97 98 